c A temporal KB for measuring ID
p wcnf 29 21 4
3 1 9 0
3 -1 3 0
3 -1 -4 0
3 -9 3 0
3 -9 4 0
3 5 10 0
3 -5 7 0
3 -5 -8 0
3 -10 7 0
3 -10 8 0
3 2 6 11 0
3 -2 4 0
3 -2 -3 0
3 -11 4 0
3 -11 3 0
3 -6 8 0
3 -6 -7 0
3 -11 8 0
3 -11 7 0
1 -3 -4 0
1 -7 -8 0
